55
1 1 2
2 1 6
3 1 5
4 2 5
5 2 6
6 2 7
7 2 3
8 3 6
9 3 7
10 3 8
11 3 4
12 4 7
13 4 8
14 5 6
15 5 10
16 5 9
17 6 7
18 6 11
19 6 10
20 6 9
21 7 8
22 7 12
23 7 11
24 7 10
25 8 11
26 8 12
27 9 10
28 9 14
29 9 13
30 10 11
31 10 15
32 10 14
33 10 13
34 11 12
35 11 16
36 11 15
37 11 14
38 12 16
39 12 15
40 13 14
41 13 18
42 13 17
43 14 15
44 14 19
45 14 18
46 14 17
47 15 16
48 15 20
49 15 19
50 15 18
51 16 20
52 16 19
53 17 18
54 18 19
55 19 20